
Gurobi 7.0.1 (linux64, Python) logging started Sat Jan 21 12:57:30 2017

Optimize a model with 6 rows, 5 columns and 12 nonzeros
Coefficient statistics:
  Matrix range     [1e+00, 1e+00]
  Objective range  [2e+01, 3e+01]
  Bounds range     [0e+00, 0e+00]
  RHS range        [8e+01, 1e+02]
Presolve time: 0.00s

Solved in 0 iterations and 0.00 seconds
Infeasible or unbounded model

Gurobi 7.0.1 (linux64, Python) logging started Sat Jan 21 12:59:22 2017


Gurobi 7.0.1 (linux64, Python) logging started Sat Jan 21 13:00:26 2017


Gurobi 7.0.1 (linux64, Python) logging started Sat Jan 21 13:01:02 2017


Gurobi 7.0.1 (linux64, Python) logging started Sat Jan 21 13:01:52 2017


Gurobi 7.0.1 (linux64, Python) logging started Sat Jan 21 13:04:22 2017


Gurobi 7.0.1 (linux64, Python) logging started Sat Jan 21 13:04:44 2017


Gurobi 7.0.1 (linux64, Python) logging started Sat Jan 21 13:06:12 2017


Gurobi 7.0.1 (linux64, Python) logging started Sat Jan 21 13:06:31 2017

Optimize a model with 6 rows, 5 columns and 12 nonzeros
Coefficient statistics:
  Matrix range     [1e+00, 1e+00]
  Objective range  [2e+01, 3e+01]
  Bounds range     [0e+00, 0e+00]
  RHS range        [8e+01, 1e+02]
Presolve time: 0.01s

Solved in 0 iterations and 0.01 seconds
Infeasible or unbounded model

Gurobi 7.0.1 (linux64, Python) logging started Sat Jan 21 13:07:42 2017

Optimize a model with 6 rows, 5 columns and 12 nonzeros
Coefficient statistics:
  Matrix range     [1e+00, 1e+00]
  Objective range  [2e+01, 3e+01]
  Bounds range     [0e+00, 0e+00]
  RHS range        [8e+01, 1e+02]
Presolve time: 0.00s

Solved in 0 iterations and 0.00 seconds
Infeasible or unbounded model

Gurobi 7.0.1 (linux64, Python) logging started Sat Jan 21 13:11:06 2017

Optimize a model with 6 rows, 5 columns and 12 nonzeros
Coefficient statistics:
  Matrix range     [1e+00, 1e+00]
  Objective range  [2e+01, 3e+01]
  Bounds range     [0e+00, 0e+00]
  RHS range        [8e+01, 1e+02]
Presolve time: 0.00s
Presolved: 6 rows, 5 columns, 12 nonzeros

Iteration    Objective       Primal Inf.    Dual Inf.      Time
       0   -6.0000000e+31   6.000000e+30   6.000000e+01      0s
       7   -6.2000000e+03   0.000000e+00   0.000000e+00      0s

Solved in 7 iterations and 0.01 seconds
Optimal objective -6.200000000e+03

Gurobi 7.0.1 (linux64, Python) logging started Sat Jan 21 13:15:04 2017

Optimize a model with 6 rows, 5 columns and 12 nonzeros
Coefficient statistics:
  Matrix range     [1e+00, 1e+00]
  Objective range  [2e+01, 3e+01]
  Bounds range     [0e+00, 0e+00]
  RHS range        [8e+01, 1e+02]
Presolve time: 0.00s
Presolved: 6 rows, 5 columns, 12 nonzeros

Iteration    Objective       Primal Inf.    Dual Inf.      Time
       0   -6.0000000e+31   6.000000e+30   6.000000e+01      0s
       7   -6.2000000e+03   0.000000e+00   0.000000e+00      0s

Solved in 7 iterations and 0.00 seconds
Optimal objective -6.200000000e+03

Gurobi 7.0.1 (linux64, Python) logging started Sat Jan 21 13:17:11 2017

Optimize a model with 6 rows, 5 columns and 12 nonzeros
Coefficient statistics:
  Matrix range     [1e+00, 1e+00]
  Objective range  [2e+01, 3e+01]
  Bounds range     [0e+00, 0e+00]
  RHS range        [8e+01, 1e+02]
Presolve time: 0.00s
Presolved: 6 rows, 5 columns, 12 nonzeros

Iteration    Objective       Primal Inf.    Dual Inf.      Time
       0   -6.0000000e+31   6.000000e+30   6.000000e+01      0s
       7   -6.2000000e+03   0.000000e+00   0.000000e+00      0s

Solved in 7 iterations and 0.00 seconds
Optimal objective -6.200000000e+03

Gurobi 7.0.1 (linux64, Python) logging started Sat Jan 21 13:17:26 2017

Optimize a model with 6 rows, 5 columns and 12 nonzeros
Coefficient statistics:
  Matrix range     [1e+00, 1e+00]
  Objective range  [2e+01, 3e+01]
  Bounds range     [0e+00, 0e+00]
  RHS range        [8e+01, 1e+02]
Presolve time: 0.00s
Presolved: 6 rows, 5 columns, 12 nonzeros

Iteration    Objective       Primal Inf.    Dual Inf.      Time
       0   -6.0000000e+31   6.000000e+30   6.000000e+01      0s
       7   -6.2000000e+03   0.000000e+00   0.000000e+00      0s

Solved in 7 iterations and 0.00 seconds
Optimal objective -6.200000000e+03
